
Gurobi 9.5.2 (win64, Python) logging started Tue Jul 11 11:30:39 2023

Set parameter Username
Set parameter LogFile to value "gurobi.log"
Academic license - for non-commercial use only - expires 2023-10-02
